58 300 199 190 198 195 154 179 160 182 163 181 186 173 166 187 190 177 192 157 179 182 167 163 174 168 161 199 153 162 156 159 195 179 199 193 173 177 171 157 158 158 189 195 181 179 181 170 180 172 152 158 178 194 171 176 186 156 174 190 